p cnf 33 97
-1 2 -3 0
1 -2 -3 0
-1 -2 3 0
1 2 3 0
-5 3 0
-5 4 0
-3 -4 5 0
7 6 0
7 -6 0
8 -2 0
8 7 0
2 -7 -8 0
10 -7 0
10 9 0
7 -9 -10 0
11 10 0
11 -1 0
-10 1 -11 0
12 -8 0
12 11 0
8 -11 -12 0
-15 -13 0
-15 14 0
13 -14 15 0
16 14 -17 0
-16 -14 -17 0
16 -14 17 0
-16 14 17 0
-18 -17 0
-18 -2 0
17 2 18 0
-19 15 0
-19 18 0
-15 -18 19 0
-12 -19 -20 0
12 19 -20 0
-12 19 20 0
12 -19 20 0
5 -20 -21 0
-5 20 -21 0
5 20 21 0
-5 -20 21 0
-4 22 -23 0
4 -22 -23 0
-4 -22 23 0
4 22 23 0
-24 -17 0
-24 23 0
17 -23 24 0
25 -21 0
25 24 0
21 -24 -25 0
2 -9 -26 0
-2 9 -26 0
2 9 26 0
-2 -9 26 0
28 27 0
28 16 0
-27 -16 -28 0
-29 -26 0
-29 28 0
26 -28 29 0
30 25 0
30 29 0
-25 -29 -30 0
31 9 0
31 6 0
-9 -6 -31 0
32 -22 0
32 -31 0
22 31 -32 0
33 -30 0
33 -32 0
30 32 -33 0
-6 22 0
16 -29 0
-19 12 0
30 -2 0
22 -7 -28 0
23 -26 17 0
-29 -6 7 -21 -11 -27 0
28 11 0
28 25 -2 -1 -16 0
27 30 -4 23 -26 0
21 -22 13 -26 -2 0
20 1 -19 0
28 -2 -17 5 -15 0
3 -28 -33 -11 0
-9 15 1 23 0
-19 13 12 2 -22 0
31 15 -32 0
24 -19 11 -31 0
12 8 -25 0
10 16 28 32 -4 0
22 8 19 25 0
-16 28 -7 4 0
33 0
